c parity = 0 0 0 1 0 1 0 1 1 0 1 0 1 1 0 0 0 1 0 1 0 0 1 0 0 0 0 1 0 1 0 1 1 1 1 0 0 1 0 0 0 1 0 1 1 1 1 1 0 1 0 1 1 0 1 0 1 0 0 0 
c e = 0.25 
p cnf 60 120
x 3 5 7 9 10 11 14 17 19 20 22 23 26 27 31 32 33 35 37 38 39 40 44 47 49 51 52 53 54 57 58 0
x 1 4 5 6 10 13 14 15 16 17 21 22 26 29 31 32 34 36 39 40 41 43 46 47 50 55 57 59 60 0
x 3 6 7 8 9 12 13 14 16 19 20 21 22 25 29 32 33 35 36 37 38 39 44 46 47 49 50 51 54 55 56 57 0
x 3 5 6 8 9 10 14 16 18 19 21 23 26 27 29 31 32 33 34 35 38 41 43 44 45 46 47 49 51 52 57 58 0
x -2 3 4 5 6 7 8 10 11 13 15 18 22 24 26 27 28 35 37 39 41 43 45 46 47 51 54 55 57 60 0
x -2 3 4 5 7 8 12 13 14 15 17 20 23 28 30 31 33 35 38 39 40 41 44 45 46 47 49 50 55 57 60 0
x -1 4 8 9 11 12 13 14 17 20 22 23 25 27 29 31 33 34 36 37 39 44 45 47 51 52 53 54 56 57 58 59 0
x -1 3 6 8 9 10 13 16 18 19 20 22 23 25 27 30 31 35 36 38 40 44 45 48 50 52 53 54 55 56 57 58 0
x 1 2 3 5 11 17 20 21 26 27 29 30 32 34 36 37 39 43 44 45 46 47 48 50 53 55 56 57 58 60 0
x -1 6 7 8 9 12 13 14 16 18 20 21 26 27 34 36 38 39 41 42 44 47 49 51 52 53 55 56 57 60 0
x 2 3 6 8 9 10 12 14 17 18 21 23 24 28 29 30 32 34 36 41 42 48 49 50 51 52 53 54 55 58 59 0
x 1 3 6 8 9 10 11 12 14 16 18 19 22 24 25 26 35 37 38 40 43 46 48 49 50 51 52 53 55 56 0
x -3 5 7 8 10 11 12 20 22 25 26 27 28 31 32 34 36 42 43 44 45 46 47 49 51 52 53 54 55 60 0
x 1 4 5 6 7 11 13 14 15 17 19 24 25 26 28 29 32 34 36 38 40 41 48 52 53 55 56 59 0
x 2 3 7 8 10 13 14 17 19 24 25 26 29 30 32 34 35 36 40 41 42 44 45 46 47 49 50 52 55 56 0
x -1 3 5 10 13 15 17 19 21 22 25 26 28 31 32 34 35 38 40 41 42 43 44 46 52 53 55 56 58 59 60 0
x 1 3 5 6 9 10 11 14 15 19 20 22 24 25 27 28 29 30 31 33 34 37 42 44 46 49 57 60 0
x -1 2 4 5 9 11 12 15 16 17 19 20 22 24 25 27 32 33 37 38 39 43 45 48 50 51 52 55 56 58 0
x 2 3 4 6 7 9 10 13 21 23 25 26 27 30 31 32 39 40 41 44 45 46 47 49 50 51 56 57 58 59 60 0
x 3 4 8 9 12 13 19 22 24 25 26 29 30 32 34 38 40 41 42 44 45 46 47 48 50 52 53 55 57 60 0
x -2 3 4 5 6 7 8 10 14 15 17 20 27 28 32 33 34 37 38 41 43 45 46 48 50 51 52 53 54 58 60 0
x 1 2 5 6 8 10 12 14 15 17 21 23 24 27 28 29 32 37 40 42 44 45 47 50 51 53 56 57 58 59 0
x -1 2 6 7 8 9 10 12 14 15 17 18 19 21 22 23 24 30 31 36 37 39 45 46 48 49 53 55 56 58 59 0
x 2 3 5 9 10 11 12 14 15 16 19 20 21 24 25 26 27 32 33 35 38 39 42 43 45 47 49 51 52 56 57 60 0
x 1 4 6 7 8 10 12 14 18 19 21 24 25 26 27 28 29 31 34 36 41 42 43 47 48 51 53 58 59 60 0
x 1 6 8 10 14 16 19 20 22 23 28 29 30 31 34 35 39 40 41 45 46 48 49 50 51 53 54 56 58 59 0
x -1 2 3 5 6 7 8 13 17 18 19 20 22 23 26 29 34 35 38 41 42 43 48 49 51 57 58 59 0
x 4 5 7 8 9 11 14 16 18 19 23 24 26 27 29 34 35 37 41 44 46 49 50 51 52 53 55 56 58 59 60 0
x -1 2 4 9 10 14 20 21 23 26 27 28 29 31 32 33 36 41 42 43 45 48 49 50 51 53 54 56 57 58 0
x 1 3 5 6 7 8 10 11 13 14 15 18 19 22 24 25 26 28 30 32 34 37 40 41 43 44 48 51 53 56 58 0
x -3 4 6 8 9 10 12 13 14 15 21 23 24 25 28 29 32 34 35 38 40 45 46 49 51 52 53 58 59 60 0
x -3 4 6 14 17 18 19 20 22 23 27 28 30 31 32 33 34 36 38 40 41 42 43 45 46 49 50 54 60 0
x 1 2 3 5 6 7 9 12 13 15 17 19 21 22 26 28 30 35 36 38 39 41 42 43 44 46 50 51 54 58 60 0
x 1 3 4 5 6 13 14 16 17 20 23 25 26 29 30 31 32 34 35 36 44 47 48 49 50 52 54 55 56 57 58 0
x -3 5 6 7 8 9 10 12 14 15 16 18 19 20 21 23 26 27 28 29 32 36 40 46 49 53 55 56 58 60 0
x -1 2 4 7 8 12 13 14 15 16 17 18 19 27 28 29 30 32 33 35 39 40 41 46 50 51 53 55 56 58 60 0
x -1 5 9 11 15 16 19 20 21 23 24 31 33 34 35 37 38 39 41 43 44 46 48 50 51 52 55 56 57 60 0
x 2 5 7 9 10 12 14 15 16 23 25 26 32 33 36 37 38 39 40 41 42 43 45 48 49 50 51 52 57 59 0
x 3 4 6 9 11 12 13 14 15 16 17 19 21 22 25 26 29 31 32 35 36 39 42 43 46 48 51 52 54 57 0
x -1 2 3 4 5 9 10 11 12 14 15 16 20 21 23 28 29 32 33 35 37 38 41 43 45 47 48 49 51 53 56 57 0
x -1 3 6 8 9 10 11 12 16 17 22 25 27 30 33 35 37 39 44 46 47 48 49 51 52 54 55 56 57 58 0
x -2 3 6 7 10 11 12 17 22 25 28 30 32 36 37 39 40 41 42 44 45 46 47 48 49 51 52 53 54 57 58 60 0
x -1 3 4 8 9 11 17 18 19 20 22 23 26 30 31 32 34 35 36 37 42 44 46 48 49 50 51 52 53 56 60 0
x 1 3 8 10 11 14 16 17 19 22 23 25 27 34 35 37 38 40 44 45 46 48 49 50 52 53 55 56 57 58 60 0
x -1 3 5 9 10 11 12 13 17 18 19 21 22 23 24 26 28 29 31 32 36 37 39 41 42 45 48 49 50 51 58 0
x 1 8 10 11 13 17 18 19 20 21 22 25 26 28 33 34 35 36 37 38 39 40 41 44 45 48 49 50 51 53 60 0
x 2 3 5 11 12 13 15 16 18 19 23 24 25 27 30 32 34 36 37 38 40 41 43 44 49 51 52 54 55 59 0
x -1 2 5 6 7 11 13 16 17 18 20 21 23 26 28 29 32 33 41 42 46 48 50 52 53 54 56 57 60 0
x -1 2 3 4 5 6 9 13 18 21 23 24 25 26 30 31 34 36 37 38 41 44 45 46 48 49 50 53 54 59 60 0
x 2 3 4 9 10 11 18 20 21 25 26 27 31 33 34 35 37 39 41 43 45 49 51 52 54 56 57 58 59 60 0
x -3 5 6 10 12 13 17 21 26 29 30 33 34 36 38 39 43 45 46 47 49 50 51 52 53 54 55 56 57 59 60 0
x -1 4 6 7 9 11 16 21 22 23 24 25 27 28 29 30 31 33 34 35 36 37 39 40 42 43 45 46 52 55 57 60 0
x -1 2 3 4 5 9 11 12 13 15 17 20 22 23 25 27 29 30 39 40 42 45 47 48 49 50 51 54 58 59 60 0
x 1 2 4 5 6 7 8 12 13 17 21 23 25 26 27 30 31 32 35 36 39 40 42 45 48 50 52 54 55 59 60 0
x -1 2 3 6 7 10 11 12 15 16 19 22 25 26 31 34 36 40 41 42 44 45 48 49 52 53 54 55 57 58 59 0
x -1 2 3 4 8 9 10 11 12 15 16 21 22 23 24 25 26 27 30 33 37 38 41 42 44 46 47 49 51 53 57 0
x -5 7 9 14 15 16 22 23 24 25 26 27 28 30 31 33 35 37 38 39 41 43 44 46 49 50 54 55 59 60 0
x -2 3 4 5 7 10 15 16 17 18 21 23 24 26 27 28 31 34 35 37 38 39 40 41 42 43 50 52 53 54 56 0
x 3 4 8 10 11 12 13 17 19 21 22 23 24 25 27 28 31 33 34 35 37 38 41 48 49 50 55 56 59 60 0
x 1 2 5 8 9 10 11 14 15 18 23 25 26 27 28 30 35 36 37 38 40 42 43 47 49 53 54 55 56 57 0
x -8 10 11 16 17 19 20 22 23 25 27 31 33 35 36 38 39 40 41 44 46 48 51 52 54 57 58 59 60 0
x 1 3 6 7 8 10 11 14 18 25 27 29 33 34 38 39 41 42 43 44 45 46 49 50 51 53 55 57 58 60 0
x -2 5 7 9 11 14 15 17 21 24 25 26 27 29 32 33 34 36 38 42 43 44 45 47 48 50 52 53 57 0
x 3 4 6 7 10 11 12 15 17 18 22 24 25 26 28 29 30 31 32 33 36 37 38 40 42 44 47 48 50 52 53 57 0
x -1 3 4 5 6 7 8 9 10 13 15 17 19 24 26 27 30 31 32 36 37 38 43 44 50 53 56 57 59 0
x 1 5 6 7 10 15 16 18 20 22 23 24 25 28 32 33 36 37 44 47 49 50 51 53 56 57 58 59 60 0
x -4 7 8 9 15 18 19 23 24 25 26 28 31 33 35 40 41 42 43 45 47 48 50 51 52 54 55 57 59 60 0
x 1 6 8 10 11 12 13 15 16 20 21 22 23 25 26 29 30 31 32 33 34 37 40 42 44 46 47 48 49 52 53 0
x -1 2 3 4 6 8 9 12 13 15 17 21 24 25 27 28 30 35 37 38 39 41 45 47 48 49 50 52 54 56 60 0
x -1 2 3 5 6 9 12 14 15 17 18 22 23 24 25 27 28 30 31 34 35 38 40 48 49 52 55 56 58 59 0
x 2 7 8 9 10 12 13 14 21 22 25 27 29 30 31 33 36 37 39 40 41 43 44 45 46 47 48 50 54 55 59 0
x 1 2 6 10 15 16 17 19 21 22 23 24 26 27 28 29 30 31 33 36 37 38 40 42 43 47 50 52 53 54 56 0
x -3 4 6 8 10 11 13 20 21 22 25 26 27 30 32 34 38 40 41 44 46 48 50 52 53 54 56 58 59 0
x 1 3 4 9 10 12 13 14 16 21 28 29 32 34 35 36 37 38 39 40 41 42 43 44 45 46 48 55 56 0
x 5 7 8 10 11 13 15 19 21 22 23 24 25 26 28 29 30 32 34 35 36 40 41 42 43 44 49 55 57 59 60 0
x 1 2 3 5 6 7 9 14 20 24 25 26 27 30 32 34 35 37 38 40 41 43 45 46 47 48 49 55 56 57 59 60 0
x 2 3 6 8 10 15 16 17 18 20 22 24 25 29 30 33 38 40 41 46 48 50 51 52 53 56 57 58 59 0
x -2 3 5 8 9 10 12 16 17 18 21 23 25 28 31 32 34 37 38 39 40 41 42 43 46 47 48 49 50 52 60 0
x 1 2 4 5 7 9 11 17 22 23 27 32 33 34 35 36 37 39 40 41 43 45 47 48 50 53 55 58 59 0
x 3 7 9 11 12 13 14 15 18 21 23 26 29 30 32 34 36 39 40 42 43 45 46 49 51 53 54 55 56 57 0
x -1 3 6 8 11 13 18 19 20 21 23 27 29 30 33 35 36 38 39 40 43 46 47 51 53 54 55 57 59 60 0
x 1 2 3 4 5 9 12 16 17 18 19 21 25 27 28 34 36 40 41 42 43 44 45 48 53 54 57 58 59 0
x 1 2 4 6 7 8 9 11 12 15 16 17 20 21 24 25 27 28 29 31 32 34 35 46 51 52 53 54 55 59 0
x 2 4 10 11 12 13 15 16 17 18 19 20 23 25 26 27 28 31 32 34 35 36 41 44 45 46 50 51 53 60 0
x -2 4 7 9 11 13 14 16 20 25 27 30 32 33 34 35 38 39 41 44 46 47 48 50 51 52 55 57 58 0
x 1 3 4 5 6 8 11 14 16 17 18 23 26 27 29 33 35 38 41 43 44 48 49 50 52 53 55 56 57 59 0
x 1 2 9 10 13 17 19 20 22 23 24 26 29 31 33 36 39 40 41 42 43 44 46 49 50 55 57 58 59 0
x 9 11 13 14 16 17 19 20 22 23 25 26 28 30 31 33 34 36 37 38 39 41 44 45 47 48 50 51 52 53 57 0
x -1 2 4 5 7 11 12 13 14 16 17 18 20 24 30 34 36 39 40 42 44 45 47 48 49 51 53 54 59 60 0
x 1 2 6 8 10 12 13 14 18 19 21 23 24 25 27 28 32 33 35 37 38 39 45 47 48 51 53 55 56 59 60 0
x -1 3 4 5 6 9 13 15 18 20 21 22 25 26 27 28 31 32 33 37 39 40 41 42 43 45 46 51 53 54 58 60 0
x 7 8 9 11 12 17 18 19 21 26 27 28 29 31 33 36 38 39 40 42 43 44 46 49 50 52 56 58 59 60 0
x 1 2 3 4 5 6 8 9 14 15 20 21 25 26 27 31 38 39 41 42 43 45 48 50 51 52 53 56 58 0
x 1 4 5 6 9 10 11 14 17 18 19 21 26 27 29 31 33 34 35 36 37 38 42 47 48 50 51 54 55 56 58 59 0
x 1 5 6 8 9 10 14 16 17 18 21 22 24 25 26 29 31 32 33 34 35 37 38 43 47 48 49 51 53 54 57 0
x 3 5 8 10 15 18 20 21 23 25 26 28 30 31 33 34 36 37 42 43 48 49 50 51 53 54 55 57 58 0
x 1 2 3 5 8 11 12 16 22 23 24 25 28 31 33 34 35 36 37 40 45 46 47 50 51 52 55 56 59 60 0
x 1 2 3 11 12 14 16 18 19 23 25 27 29 30 31 32 34 40 42 44 45 47 48 49 50 52 53 54 57 58 0
x -10 14 16 17 19 21 22 24 25 26 28 30 33 35 37 38 39 41 44 45 47 50 51 55 56 58 59 60 0
x 2 6 8 12 13 14 16 18 19 21 23 25 27 29 31 32 33 35 36 39 45 46 47 48 51 55 57 58 59 0
x 3 4 6 8 11 17 18 19 20 21 22 24 25 27 29 30 31 32 33 36 39 40 42 43 44 45 48 50 54 55 56 58 0
x 2 3 6 7 9 11 13 16 18 19 20 22 26 30 33 34 37 38 39 40 41 43 47 49 51 52 54 55 56 59 60 0
x -1 2 6 9 10 12 13 14 15 17 18 20 23 27 29 31 32 35 36 38 40 43 47 48 50 51 52 57 58 60 0
x 1 3 7 9 10 12 13 14 15 18 21 23 27 29 30 32 33 35 37 38 43 44 45 46 47 48 49 50 53 60 0
x -4 5 7 8 9 10 12 13 17 19 21 23 24 25 26 28 29 30 33 34 35 36 38 42 44 46 55 56 57 59 0
x -3 6 7 8 9 10 14 20 24 25 26 27 29 30 33 34 35 36 37 39 40 41 42 46 47 50 52 53 55 56 0
x 2 5 6 7 9 12 13 14 15 16 17 23 25 26 27 28 31 32 33 34 36 37 39 46 50 51 52 53 57 58 0
x 1 3 6 8 10 13 14 16 18 19 20 22 24 26 29 30 31 32 34 35 36 39 42 43 44 45 50 51 52 58 0
x -2 3 5 8 10 13 16 19 21 24 25 26 28 29 32 33 34 38 41 44 45 46 48 50 51 52 53 54 55 57 58 0
x 3 4 6 7 8 9 10 11 12 13 14 17 20 23 24 28 29 31 32 34 35 37 38 39 41 43 47 51 54 58 0
x -1 2 6 8 10 11 15 16 17 25 30 32 33 34 36 38 40 41 44 45 46 48 50 51 52 55 56 57 59 0
x 2 3 4 5 7 10 12 17 18 21 22 23 25 27 29 30 37 38 40 43 45 48 49 51 52 53 55 56 57 58 60 0
x 1 3 7 9 10 12 13 14 16 17 18 20 21 22 25 27 29 34 35 36 37 38 47 49 50 53 55 56 57 59 60 0
x 1 2 4 5 7 10 11 13 17 18 19 25 28 29 30 31 32 33 34 35 36 37 40 41 42 43 48 50 52 56 57 59 0
x -1 2 7 8 9 12 13 14 16 17 20 21 22 23 27 28 29 31 33 38 40 43 45 46 48 53 55 56 59 60 0
x -1 4 5 6 7 8 9 11 16 18 19 20 22 24 25 26 27 29 31 34 36 38 41 42 45 50 51 52 55 58 0
x -1 4 6 7 8 11 13 14 16 17 19 20 22 24 26 29 30 33 35 37 38 40 43 45 46 50 52 54 55 59 60 0
x -2 6 7 8 11 14 15 17 20 24 25 29 30 36 37 38 39 44 45 46 47 48 52 53 54 55 56 57 58 59 60 0
x -2 7 11 12 15 16 17 18 19 21 23 24 27 30 31 33 38 39 41 46 48 49 50 51 52 53 54 56 57 58 0
x 1 3 5 6 7 9 12 13 14 18 22 24 25 26 27 29 30 32 34 36 37 39 45 47 49 53 56 58 59 60 0
